# ---------- Final GaN Nanobelt Simulation Script ----------

units     metal
atom_style charge
boundary   s s s 
read_data  GaN_nanobelt.data

pair_style sw
pair_coeff * * GaN.sw Ga N

neighbor 2.0 bin
neigh_modify delay 0 every 1 check yes

minimize 1e-6 1e-8 10000 100000

timestep 0.001

# --- Equilibrate ---
fix nvt1 all nvt temp 300.0 300.0 0.1
run 5000
unfix nvt1

# --- Apply electric field ---
variable efield equal 0.0  # set per run
fix field all efield 0.0 +8.0 ${efield}

# --- Re-equilibrate with field ---
fix nvt2 all nvt temp 300.0 300.0 0.1
run 5000
unfix nvt2
unfix field

# --- Apply bending force ---
region mid block INF INF INF INF 10 12 units box
group middle region mid
fix bend middle addforce 0.0 0.1 0.0
run 2000
unfix bend

# --- Free vibration ---
fix nve all nve

# --- Stress computation ---
compute stress all stress/atom NULL
compute pzz all reduce sum c_stress[3]
variable area equal lx*ly
variable stress_z equal c_pzz/v_area  # eV/Å³ → convert in Python to GPa



# --- Thermo output ---
thermo 100
thermo_style custom step temp v_stress_z pe ke etotal

# --- Dump Vibration & Bond Data ---
variable dumpdir string dump_vibrate_${efield}
shell mkdir ${dumpdir}

dump 1 all custom 500 dump.vibrate.* id type x y z


run 5000
