# ---------- Initialization ----------
units           metal
dimension       3
boundary        p p p
atom_style      full

read_data       batio3.data

# ---------- Potential & Force Fields ----------
pair_style      buck/coul/long 10.0

# Full set of 21 pair_coeffs (from Sepliarsky 2004 + symmetry)
pair_coeff 1 1  0.0      1.0     0.0
pair_coeff 1 2  24394.0  0.2776  27.88
pair_coeff 1 3  25500.0  0.2900  23.00
pair_coeff 1 4  26361.0  0.3013  24.45
pair_coeff 1 5  22000.0  0.2750  19.00
pair_coeff 1 6  23427.0  0.2823  22.84

pair_coeff 2 2  629.757  0.3125  0.0
pair_coeff 2 3  31000.0  0.2663  20.91
pair_coeff 2 4  26361.0  0.3013  24.45
pair_coeff 2 5  20800.0  0.2930  23.34
pair_coeff 2 6  23427.0  0.2823  22.84

pair_coeff 3 3  0.0      1.0     0.0
pair_coeff 3 4  37990.0  0.2671  25.36
pair_coeff 3 5  24000.0  0.2650  17.00
pair_coeff 3 6  32000.0  0.2600  18.89

pair_coeff 4 4  2443.87  0.2899  0.0
pair_coeff 4 5  23700.0  0.2900  20.52
pair_coeff 4 6  32000.0  0.2600  18.89

pair_coeff 5 5  0.0      1.0     0.0
pair_coeff 5 6  22764.0  0.2891  18.69

pair_coeff 6 6  22764.0  0.2891  18.69

bond_style      harmonic
bond_coeff      1 1000.0 0.0

kspace_style    ewald 1e-6

# ---------- Groups ----------
group shells type 2 4 6
group cores  type 1 3 5
group all_atoms union shells cores

# ---------- Neighboring ----------
neighbor        2.0 bin
neigh_modify    delay 0 every 1 check yes

# ---------- Time Integration ----------
velocity        all_atoms create 300.0 12345 mom yes rot no
fix             shell_nve shells nve
fix             core_nvt cores nvt temp 300.0 300.0 100.0

timestep        0.5

# ---------- Thermo Settings ----------
thermo          100
thermo_style    custom step temp press pe ke etotal
thermo_modify   lost warn flush yes

# ---------- Pre-Run to Initialize System ----------
run             0

# ---------- Charge Check ----------
compute         q all property/atom q
compute         Q all reduce sum c_q
run             0
variable        total_charge equal c_Q
print           ">>> Total charge = ${total_charge}"

# ---------- Compute Polarization ----------
compute         disp all displace/atom
variable        px atom c_q * c_disp[1]
variable        py atom c_q * c_disp[2]
variable        pz atom c_q * c_disp[3]
compute         Px all reduce sum v_px
compute         Py all reduce sum v_py
compute         Pz all reduce sum v_pz

# ---------- Apply strain in Z direction ----------
variable        strain equal 0.01
variable        new_z equal "lz*(1.0 + v_strain)"
change_box      all z final 0.0 ${new_z} remap

# ---------- Updated Thermo with Polarization ----------
thermo_style custom step temp press v_strain c_Px c_Py c_Pz
run 5000

# ---------- Dump ----------
dump 1 all custom 500 dump.polarization id type x y z q
