units metal
atom_style charge
boundary s s s

# Ga lattice
lattice custom 3.189 a1 1.0 0.0 0.0 a2 -0.5 0.8660254 0.0 a3 0.0 0.0 5.185 &
    basis 0.0 0.0 0.0 &
    basis 0.6667 0.3333 0.5

region nanobelt block 0 44 0 12 0 4 units lattice
create_box 2 nanobelt
mass 1 69.723 #mass of Ga
mass 2 14.007 #Mass of N

create_atoms 1 region nanobelt

# N lattice
lattice custom 3.189 a1 1.0 0.0 0.0 a2 -0.5 0.8660254 0.0 a3 0.0 0.0 5.185 &
    basis 0.0 0.0 0.375 &
    basis 0.6667 0.3333 0.875

create_atoms 2 region nanobelt

# Set charges
set type 1 charge 1.3
set type 2 charge -1.3

# Confirm
write_data GaN_nanobelt.data
