# BaTiO3 Piezoelectric Coefficients - Improved Input Script

# ---------- Initialization ----------
units           metal
dimension       3
boundary        p p s
atom_style      full

read_data       batio3.data

# ---------- Interatomic Potentials ----------
pair_style      hybrid/overlay buck/coul/long 10.0
kspace_style    ewald 1e-5

bond_style      harmonic

pair_coeff 1 1 buck/coul/long 0.0 1.0 0.0
pair_coeff 1 2 buck/coul/long 0.0 1.0 0.0
pair_coeff 2 2 buck/coul/long 0.0 1.0 0.0
pair_coeff 3 4 buck/coul/long 0.0 1.0 0.0
# Ba–O
pair_coeff 1 5 buck/coul/long 821.6 0.3242 0.0
pair_coeff 1 6 buck/coul/long 821.6 0.3242 0.0
pair_coeff 2 5 buck/coul/long 821.6 0.3242 0.0
pair_coeff 2 6 buck/coul/long 821.6 0.3242 0.0

# Ti–O
pair_coeff 3 5 buck/coul/long 1380.0 0.2740 0.0
pair_coeff 3 6 buck/coul/long 1380.0 0.2740 0.0
pair_coeff 4 5 buck/coul/long 1380.0 0.2740 0.0
pair_coeff 4 6 buck/coul/long 1380.0 0.2740 0.0

# O–O
pair_coeff 5 5 buck/coul/long 22764.0 0.1490 27.88
pair_coeff 5 6 buck/coul/long 22764.0 0.1490 27.88
pair_coeff 6 6 buck/coul/long 22764.0 0.1490 27.88

# Ba–Ti (negligible)
pair_coeff 1 3 buck/coul/long 0.0 1.0 0.0
pair_coeff 1 4 buck/coul/long 0.0 1.0 0.0
pair_coeff 2 3 buck/coul/long 0.0 1.0 0.0
pair_coeff 2 4 buck/coul/long 0.0 1.0 0.0

# Shell–Shell (O–O) again to ensure completeness
pair_coeff 3 3 buck/coul/long 0.0 1.0 0.0
pair_coeff 4 4 buck/coul/long 0.0 1.0 0.0

# Bond coefficients (core-shell springs)
bond_coeff 1 200.0 0.0   # literature uses k ~70 eV/Å²

# ---------- Neighbor & Communication ----------
neighbor        4.0 bin
neigh_modify    every 1 delay 0 check yes
comm_modify     vel yes cutoff 2.0

# ---------- Fixes ----------
fix             damp all langevin 300 300 1000 12345
fix             intg all nve

# ---------- Time Step ----------
timestep       0.00000002   # safer timestep

# ---------- Energy Minimization ----------
min_style       cg
minimize        1e-4 1e-6 5000 10000

# ---------- Computes & Thermo ----------
compute         dip all dipole
variable        Px equal c_dip[1]
variable        Py equal c_dip[2]
variable        Pz equal c_dip[3]
variable        V equal vol
variable        E equal 1e-7  # realistic field ~1e6 V/m

thermo          500
thermo_style    custom step temp v_Px v_Py v_Pz

fix avg_p all ave/time 50 200 10000 c_dip[1] c_dip[2] c_dip[3] file polarization.dat

# ---------- Piezoelectric Tensor Computation ----------

# d33
fix ef all efield 0.0 0.0 ${E}
run 50000
variable Pz_plus equal ${Pz}
unfix ef

fix ef all efield 0.0 0.0 -${E}
run 50000
variable Pz_minus equal ${Pz}
unfix ef

variable d33_raw equal (v_Pz_plus - v_Pz_minus)/(2*v_E*v_V)
variable d33_CpM2 equal v_d33_raw*1.60218e-19/1e-30
print "d33 (C/m^2) = ${d33_CpM2}"

# d32
fix ef all efield 0.0 ${E} 0.0
run 50000
variable Pz_plus equal ${Pz}
unfix ef

fix ef all efield 0.0 -${E} 0.0
run 50000
variable Pz_minus equal ${Pz}
unfix ef

variable d32_raw equal (v_Pz_plus - v_Pz_minus)/(2*v_E*v_V)
variable d32_CpM2 equal v_d32_raw*1.60218e-19/1e-30
print "d32 (C/m^2) = ${d32_CpM2}"

# d31
fix ef all efield ${E} 0.0 0.0
run 50000
variable Pz_plus equal ${Pz}
unfix ef

fix ef all efield -${E} 0.0 0.0
run 50000
variable Pz_minus equal ${Pz}
unfix ef

variable d31_raw equal (v_Pz_plus - v_Pz_minus)/(2*v_E*v_V)
variable d31_CpM2 equal v_d31_raw*1.60218e-19/1e-30
print "d31 (C/m^2) = ${d31_CpM2}"

# ---------- Done ----------
print "Piezoelectric coefficients computed successfully."
