# Full set of 21 pair_coeffs (from Sepliarsky 2004 + symmetry)
pair_style      buck/coul/long 10.0
pair_coeff 1 1  0.0      1.0     0.0
pair_coeff 1 2  24394.0  0.2776  27.88
pair_coeff 1 3  25500.0  0.2900  23.00
pair_coeff 1 4  26361.0  0.3013  24.45
pair_coeff 1 5  22000.0  0.2750  19.00
pair_coeff 1 6  23427.0  0.2823  22.84
pair_coeff 2 2  629.757  0.3125  0.0
pair_coeff 2 3  31000.0  0.2663  20.91
pair_coeff 2 4  26361.0  0.3013  24.45
pair_coeff 2 5  20800.0  0.2930  23.34
pair_coeff 2 6  23427.0  0.2823  22.84
pair_coeff 3 3  0.0      1.0     0.0
pair_coeff 3 4  37990.0  0.2671  25.36
pair_coeff 3 5  24000.0  0.2650  17.00
pair_coeff 3 6  32000.0  0.2600  18.89
pair_coeff 4 4  2443.87  0.2899  0.0
pair_coeff 4 5  23700.0  0.2900  20.52
pair_coeff 4 6  32000.0  0.2600  18.89
pair_coeff 5 5  0.0      1.0     0.0
pair_coeff 5 6  22764.0  0.2891  18.69
pair_coeff 6 6  22764.0  0.2891  18.69